3 2 1.7
2 2 1 54 2 63 2 1 87 2 95
2 1 2 120 1 2 152
2 2 1 125 2 135 2 1 143 2 124

20 9 1000000 1000000 11 12 
11 19 1000000 1000000 11 9 
1000000 1000000 1000000 1000000 1000000 1000000 
1000000 1000000 1000000 1000000 1000000 1000000 
10 11 1000000 1000000 19 9 
11 10 1000000 1000000 10 19 
17 11 8 11 12 9 
10 20 10 11 11 12 
9 11 17 11 11 10 
8 12 10 19 10 12 
11 10 10 11 21 10 
11 8 10 10 12 20 
